1 -1 2 0
1 -1 3 0
1 -4 1 0
1 -5 -6 0
1 5 7 0
1 -2 -8 0
1 3 -9 0
1 -3 -10 0
1 -11 7 0
1 6 -12 0
1 12 5 0
1 13 14 0
1 -15 -13 0
1 -15 -16 0
1 -17 12 0
1 -18 19 0
1 18 -20 0
1 19 -20 0
1 21 -22 0
1 23 -24 0
1 -25 -24 0
1 -25 26 0
1 27 -28 0
1 29 27 0
1 -30 31 0
1 32 -33 0
1 33 32 0
1 34 35 0
1 34 36 0
1 37 -38 0
1 37 -36 0
1 -39 34 0
1 38 27 0
1 -38 40 0
1 38 -34 0
1 38 32 0
1 -41 -42 0
1 -41 31 0
1 -28 -31 0
1 28 33 0
1 -9 -43 0
1 -44 -45 0
1 40 -43 0
1 40 -46 0
1 -14 -13 0
1 14 43 0
1 14 47 0
1 14 -3 0
1 -43 -20 0
1 -48 -40 0
1 -48 49 0
1 -35 -42 0
1 35 40 0
1 35 -9 0
1 35 -49 0
1 36 -35 0
1 20 -50 0
1 -20 -47 0
1 -10 51 0
1 -52 53 0
1 -52 47 0
1 46 54 0
1 -46 -55 0
1 -46 -52 0
1 51 40 0
1 -51 56 0
1 57 -53 0
1 57 47 0
1 -57 58 0
1 59 -60 0
1 59 -61 0
1 -59 -47 0
1 62 61 0
1 62 -63 0
1 -58 64 0
1 58 -59 0
1 -58 65 0
1 60 -66 0
1 60 -58 0
1 67 -68 0
1 -69 70 0
1 -69 -67 0
1 71 -72 0
1 73 72 0
1 -64 -68 0
1 -66 60 0
1 74 75 0
1 -72 70 0
1 -72 62 0
1 -61 76 0
1 61 -64 0
1 61 77 0
1 -22 78 0
1 -22 79 0
1 -80 -79 0
1 -81 -82 0
1 83 84 0
1 83 85 0
1 79 -86 0
1 79 -87 0
1 -79 88 0
1 89 80 0
1 -87 90 0
1 -91 92 0
1 -82 93 0
1 82 -94 0
1 -92 91 0
1 95 94 0
1 -95 -90 0
1 -96 97 0
1 96 40 0
1 -96 -98 0
1 -99 -100 0
1 -99 101 0
1 99 -41 0
1 99 -82 0
1 -99 102 0
1 -100 99 0
1 103 31 0
1 -103 -91 0
1 103 96 0
1 90 -31 0
1 90 -95 0
1 -90 104 0
1 -102 105 0
1 -102 106 0
1 50 42 0
1 -50 -39 0
1 50 107 0
1 -42 -10 0
1 108 103 0
1 109 -110 0
1 107 111 0
1 -101 97 0
1 97 -96 0
1 97 112 0
1 97 113 0
1 -55 35 0
1 49 -114 0
1 -49 -113 0
1 63 -115 0
1 63 112 0
1 -115 49 0
1 116 -68 0
1 -116 -117 0
1 118 119 0
1 118 120 0
1 -118 121 0
1 114 122 0
1 114 -121 0
1 54 -67 0
1 -54 123 0
1 -117 73 0
1 68 124 0
1 68 -125 0
1 -126 123 0
1 123 -127 0
1 -128 -111 0
1 -128 129 0
1 128 120 0
1 -130 -36 0
1 -131 -132 0
1 131 -123 0
1 -70 132 0
1 70 72 0
1 76 133 0
1 77 -124 0
1 124 -134 0
1 -124 77 0
1 132 135 0
1 133 -70 0
1 -136 65 0
1 -137 -75 0
1 137 -65 0
1 -65 138 0
1 65 -139 0
1 65 137 0
1 138 65 0
1 138 -140 0
1 141 142 0
1 -141 -143 0
1 -141 135 0
1 -144 145 0
1 -144 141 0
1 146 147 0
1 -147 -137 0
1 75 139 0
1 148 -149 0
1 -148 142 0
1 -148 -150 0
1 151 -146 0
1 -151 150 0
1 -152 153 0
1 -154 -155 0
1 155 -156 0
1 -157 -158 0
1 159 160 0
1 -161 -162 0
1 -158 163 0
1 158 -164 0
1 163 -165 0
1 -166 -167 0
1 166 87 0
1 168 -91 0
1 -168 -164 0
1 168 169 0
1 -168 89 0
1 -170 168 0
1 171 -170 0
1 -164 -172 0
1 -165 173 0
1 86 174 0
1 98 169 0
1 -175 176 0
1 175 -177 0
1 -175 178 0
1 -176 -166 0
1 -167 -179 0
1 167 180 0
1 167 -86 0
1 -167 181 0
1 180 175 0
1 180 168 0
1 -182 82 0
1 105 174 0
1 -183 -184 0
1 104 102 0
1 -185 79 0
1 186 181 0
1 178 -187 0
1 -178 188 0
1 -178 -98 0
1 -106 -101 0
1 -106 181 0
1 -106 -97 0
1 -106 189 0
1 -113 103 0
1 -190 -111 0
1 -112 -191 0
1 -192 -106 0
1 -192 113 0
1 184 -193 0
1 184 -183 0
1 -193 188 0
1 -193 -194 0
1 -193 113 0
1 -119 -110 0
1 119 195 0
1 -196 93 0
1 -196 107 0
1 -197 118 0
1 -197 192 0
1 121 198 0
1 121 195 0
1 121 199 0
1 -200 -201 0
1 200 -202 0
1 195 -203 0
1 195 122 0
1 -195 -119 0
1 -195 112 0
1 -191 204 0
1 -198 -204 0
1 122 116 0
1 -205 -206 0
1 207 208 0
1 207 209 0
1 -208 -210 0
1 211 107 0
1 211 212 0
1 213 122 0
1 -127 128 0
1 127 214 0
1 -129 -209 0
1 215 209 0
1 215 216 0
1 -210 211 0
1 209 -205 0
1 209 207 0
1 -206 -217 0
1 206 -218 0
1 219 220 0
1 -214 -129 0
1 135 -221 0
1 -222 132 0
1 -223 209 0
1 145 224 0
1 145 -139 0
1 145 -221 0
1 -216 -210 0
1 -216 135 0
1 -225 -216 0
1 226 -221 0
1 221 145 0
1 -221 222 0
1 -221 215 0
1 227 -144 0
1 227 228 0
1 142 138 0
1 229 134 0
1 -229 230 0
1 231 -151 0
1 -228 -232 0
1 134 -227 0
1 233 132 0
1 -233 -229 0
1 -224 -234 0
1 224 -145 0
1 235 -149 0
1 235 151 0
1 236 237 0
1 236 238 0
1 -239 240 0
1 241 -149 0
1 -241 65 0
1 242 -243 0
1 -244 149 0
1 -244 245 0
1 244 -246 0
1 -230 231 0
1 230 245 0
1 -238 -247 0
1 -238 -248 0
1 249 250 0
1 -240 251 0
1 -237 252 0
1 -237 -248 0
1 237 -253 0
1 -254 -255 0
1 256 -255 0
1 256 -257 0
1 258 259 0
1 258 260 0
1 -156 -261 0
1 -156 -262 0
1 255 -156 0
1 261 -255 0
1 261 162 0
1 260 263 0
1 -263 264 0
1 -162 -262 0
1 162 -158 0
1 265 255 0
1 -265 262 0
1 -266 267 0
1 266 -268 0
1 269 270 0
1 271 272 0
1 -271 273 0
1 -271 -265 0
1 262 177 0
1 262 -273 0
1 262 -265 0
1 262 274 0
1 275 -276 0
1 -275 277 0
1 -278 -84 0
1 -273 -270 0
1 273 278 0
1 273 161 0
1 273 153 0
1 274 -98 0
1 -274 -268 0
1 274 165 0
1 267 279 0
1 -267 269 0
1 267 -280 0
1 -270 278 0
1 -281 -282 0
1 -281 -274 0
1 281 -278 0
1 -283 160 0
1 283 -167 0
1 283 165 0
1 -279 164 0
1 -279 170 0
1 -279 -270 0
1 179 -270 0
1 160 283 0
1 -284 279 0
1 284 285 0
1 181 -176 0
1 181 -178 0
1 286 -186 0
1 286 -113 0
1 -287 -288 0
1 287 289 0
1 -290 288 0
1 290 -181 0
1 -290 -291 0
1 288 -292 0
1 -288 -199 0
1 173 293 0
1 -173 294 0
1 -188 295 0
1 296 -288 0
1 292 297 0
1 292 -295 0
1 199 298 0
1 199 -299 0
1 -295 300 0
1 301 176 0
1 297 302 0
1 297 188 0
1 -297 287 0
1 303 -304 0
1 303 287 0
1 303 -294 0
1 204 -301 0
1 204 -93 0
1 204 299 0
1 -300 305 0
1 -299 -204 0
1 299 -189 0
1 -306 -307 0
1 -187 -308 0
1 203 -200 0
1 -202 -309 0
1 310 -311 0
1 -312 313 0
1 -314 -315 0
1 -316 -203 0
1 -309 310 0
1 -309 305 0
1 -194 307 0
1 194 202 0
1 317 -316 0
1 317 -313 0
1 220 -318 0
1 -220 315 0
1 -319 320 0
1 -319 -321 0
1 217 219 0
1 217 226 0
1 217 -206 0
1 217 -221 0
1 321 -322 0
1 321 -214 0
1 -321 217 0
1 323 -221 0
1 -323 324 0
1 -325 -322 0
1 326 -234 0
1 212 -325 0
1 -212 211 0
1 212 -315 0
1 -322 -327 0
1 328 -213 0
1 -328 329 0
1 -234 330 0
1 -331 332 0
1 -332 -331 0
1 332 -324 0
1 -333 331 0
1 -333 -323 0
1 333 334 0
1 -324 335 0
1 -336 -230 0
1 -337 -338 0
1 -245 -230 0
1 245 218 0
1 -245 339 0
1 245 -340 0
1 246 341 0
1 246 -342 0
1 -343 -332 0
1 343 336 0
1 338 343 0
1 -338 344 0
1 339 -334 0
1 341 -345 0
1 -341 -346 0
1 341 -339 0
1 -341 347 0
1 -348 232 0
1 -348 -349 0
1 349 -350 0
1 -252 253 0
1 253 350 0
1 253 -351 0
1 -232 352 0
1 -232 -353 0
1 354 355 0
1 354 -253 0
1 -340 356 0
1 251 356 0
1 -248 -347 0
1 353 357 0
1 353 358 0
1 -359 -360 0
1 359 353 0
1 -351 251 0
1 -351 353 0
1 361 362 0
1 -363 250 0
1 363 -362 0
1 363 358 0
1 -364 -250 0
1 -250 364 0
1 250 -363 0
1 250 -365 0
1 -362 364 0
1 -362 366 0
1 -362 365 0
1 -367 -352 0
1 367 -362 0
1 368 -369 0
1 369 370 0
1 371 -372 0
1 -371 258 0
1 -373 -374 0
1 -373 -375 0
1 370 376 0
1 -370 371 0
1 -374 370 0
1 374 377 0
1 -378 379 0
1 -380 381 0
1 -382 372 0
1 -382 383 0
1 384 385 0
1 383 384 0
1 -372 -264 0
1 -386 -387 0
1 386 -382 0
1 -386 -388 0
1 389 373 0
1 389 390 0
1 -389 -391 0
1 -389 -371 0
1 -392 393 0
1 277 273 0
1 -277 376 0
1 -394 259 0
1 394 395 0
1 -276 -395 0
1 396 -264 0
1 397 -390 0
1 -282 -281 0
1 282 -262 0
1 398 399 0
1 400 179 0
1 -399 -401 0
1 402 -400 0
1 395 -403 0
1 -395 404 0
1 395 -398 0
1 -395 405 0
1 406 282 0
1 406 -403 0
1 -280 -399 0
1 -280 407 0
1 280 -267 0
1 280 285 0
1 408 287 0
1 -408 -409 0
1 -407 398 0
1 410 280 0
1 411 -412 0
1 -411 -413 0
1 414 -173 0
1 298 -415 0
1 -298 -172 0
1 -298 173 0
1 416 -417 0
1 416 -418 0
1 416 294 0
1 -413 416 0
1 419 -420 0
1 -419 -421 0
1 294 415 0
1 294 297 0
1 294 -422 0
1 294 -413 0
1 418 423 0
1 -418 424 0
1 -415 311 0
1 -425 426 0
1 423 427 0
1 428 -429 0
1 -428 -294 0
1 -428 -430 0
1 -431 187 0
1 431 432 0
1 -432 -295 0
1 311 433 0
1 311 187 0
1 311 -425 0
1 -426 434 0
1 426 425 0
1 -434 435 0
1 -433 436 0
1 433 437 0
1 -433 432 0
1 433 434 0
1 438 -431 0
1 -424 -439 0
1 -424 -440 0
1 -435 -433 0
1 441 442 0
1 441 443 0
1 441 437 0
1 -441 -307 0
1 442 426 0
1 -444 -426 0
1 -304 311 0
1 445 318 0
1 -445 -217 0
1 443 -194 0
1 -443 -309 0
1 446 -313 0
1 447 442 0
1 448 447 0
1 -448 -449 0
1 450 451 0
1 -450 452 0
1 308 -443 0
1 -308 -452 0
1 -320 -328 0
1 -329 453 0
1 329 -448 0
1 327 -454 0
1 327 448 0
1 -327 455 0
1 -456 447 0
1 -456 -457 0
1 -456 446 0
1 -458 -329 0
1 458 -459 0
1 460 -324 0
1 461 462 0
1 -463 464 0
1 -465 -324 0
1 -462 -201 0
1 462 -327 0
1 -462 466 0
1 453 465 0
1 -467 -329 0
1 467 468 0
1 -346 -324 0
1 -334 -469 0
1 -334 470 0
1 334 -324 0
1 345 -462 0
1 471 -472 0
1 -473 356 0
1 473 -474 0
1 475 -476 0
1 475 357 0
1 -470 477 0
1 -470 -471 0
1 470 465 0
1 356 -343 0
1 -347 356 0
1 357 478 0
1 357 -479 0
1 -480 -481 0
1 478 -357 0
1 -478 347 0
1 478 -335 0
1 482 350 0
1 482 -340 0
1 -483 354 0
1 -483 -484 0
1 481 355 0
1 -481 351 0
1 481 485 0
1 -481 486 0
1 -479 360 0
1 -479 -487 0
1 479 488 0
1 479 -344 0
1 344 489 0
1 344 488 0
1 484 -490 0
1 -484 -491 0
1 -484 492 0
1 360 493 0
1 -494 -367 0
1 495 -496 0
1 -495 497 0
1 -498 495 0
1 355 -499 0
1 -493 500 0
1 -496 488 0
1 -365 501 0
1 502 365 0
1 -502 -503 0
1 504 -505 0
1 504 -498 0
1 501 495 0
1 497 506 0
1 497 -359 0
1 -497 -495 0
1 -506 507 0
1 -508 505 0
1 -509 366 0
1 -510 -505 0
1 511 504 0
1 505 -250 0
1 366 512 0
1 -513 512 0
1 514 -515 0
1 516 369 0
1 -516 -517 0
1 518 -519 0
1 -520 -517 0
1 517 -379 0
1 -521 522 0
1 -521 523 0
1 379 -380 0
1 524 -517 0
1 -525 -387 0
1 525 526 0
1 525 -381 0
1 -527 528 0
1 528 -529 0
1 528 524 0
1 528 -379 0
1 -376 378 0
1 -391 -530 0
1 -387 -531 0
1 -532 524 0
1 530 -524 0
1 -530 533 0
1 530 -381 0
1 -530 -534 0
1 535 -536 0
1 535 537 0
1 535 538 0
1 -535 -534 0
1 539 -537 0
1 -539 381 0
1 -390 -540 0
1 541 -542 0
1 -543 396 0
1 543 544 0
1 -543 385 0
1 -545 -546 0
1 545 -547 0
1 547 387 0
1 -540 548 0
1 540 374 0
1 540 -390 0
1 -542 -549 0
1 -542 -550 0
1 -404 -280 0
1 548 393 0
1 405 544 0
1 -405 -551 0
1 544 409 0
1 388 545 0
1 -388 543 0
1 388 552 0
1 546 404 0
1 -553 399 0
1 -553 -407 0
1 553 554 0
1 555 298 0
1 555 -556 0
1 556 -557 0
1 -558 -403 0
1 558 -559 0
1 -558 -409 0
1 -551 560 0
1 -551 -561 0
1 -562 563 0
1 562 551 0
1 564 -558 0
1 422 558 0
1 -422 -565 0
1 -421 566 0
1 401 567 0
1 401 -399 0
1 401 -420 0
1 401 -421 0
1 401 -417 0
1 -401 -422 0
1 568 -402 0
1 568 417 0
1 568 555 0
1 569 570 0
1 -420 571 0
1 -420 568 0
1 -417 -412 0
1 567 401 0
1 -567 572 0
1 429 568 0
1 -566 573 0
1 566 574 0
1 -575 -576 0
1 -577 -421 0
1 -427 -578 0
1 427 438 0
1 574 -423 0
1 574 415 0
1 574 -425 0
1 579 580 0
1 -581 580 0
1 581 582 0
1 581 -575 0
1 583 584 0
1 583 416 0
1 -583 581 0
1 583 -574 0
1 585 567 0
1 -585 440 0
1 -586 -587 0
1 -572 -567 0
1 572 588 0
1 440 -583 0
1 440 -424 0
1 -589 582 0
1 589 -430 0
1 -590 -304 0
1 -590 591 0
1 592 -593 0
1 580 584 0
1 580 -440 0
1 -582 -579 0
1 -430 -590 0
1 -452 -594 0
1 -593 450 0
1 -451 -595 0
1 -591 454 0
1 596 597 0
1 596 -448 0
1 -596 460 0
1 -597 458 0
1 597 598 0
1 -597 599 0
1 600 601 0
1 -600 -602 0
1 603 456 0
1 -602 -604 0
1 -602 600 0
1 -605 -604 0
1 -598 444 0
1 -457 -606 0
1 -457 467 0
1 -607 453 0
1 -608 -609 0
1 -610 -603 0
1 -606 -603 0
1 606 -466 0
1 606 -607 0
1 -606 611 0
1 612 -603 0
1 -612 613 0
1 -612 614 0
1 477 -606 0
1 477 -472 0
1 477 -470 0
1 615 -616 0
1 -617 -615 0
1 617 618 0
1 -609 -619 0
1 609 -608 0
1 616 620 0
1 -618 -615 0
1 618 621 0
1 -622 -473 0
1 622 -623 0
1 -622 620 0
1 620 -622 0
1 -620 621 0
1 620 -335 0
1 -619 624 0
1 -619 625 0
1 619 623 0
1 -486 625 0
1 626 619 0
1 -626 -627 0
1 -623 -624 0
1 623 -617 0
1 -491 -480 0
1 -492 -628 0
1 -492 484 0
1 627 476 0
1 -476 474 0
1 -629 -627 0
1 -629 491 0
1 -628 630 0
1 -488 631 0
1 -488 -485 0
1 -488 632 0
1 -503 -493 0
1 633 -634 0
1 -633 -635 0
1 -631 -636 0
1 631 503 0
1 631 -637 0
1 638 -639 0
1 -640 641 0
1 -640 -503 0
1 640 -642 0
1 640 492 0
1 -634 643 0
1 -634 -644 0
1 500 -636 0
1 636 643 0
1 645 631 0
1 645 646 0
1 -487 -647 0
1 487 -500 0
1 -487 633 0
1 489 648 0
1 489 -487 0
1 649 650 0
1 -649 651 0
1 651 641 0
1 652 501 0
1 -653 654 0
1 648 655 0
1 648 -366 0
1 647 513 0
1 -647 646 0
1 647 -366 0
1 655 656 0
1 655 -498 0
1 654 -656 0
1 -646 648 0
1 -657 -658 0
1 656 513 0
1 -656 -512 0
1 -512 -659 0
1 512 366 0
1 660 655 0
1 -661 662 0
1 663 -501 0
1 -663 664 0
1 665 666 0
1 665 656 0
1 -664 667 0
1 -668 366 0
1 -669 670 0
1 519 518 0
1 671 -672 0
1 -673 523 0
1 -674 -671 0
1 -675 676 0
1 677 -515 0
1 -678 679 0
1 678 -680 0
1 -681 -682 0
1 -681 523 0
1 -681 673 0
1 523 -682 0
1 683 -684 0
1 683 677 0
1 -672 529 0
1 -679 681 0
1 -679 677 0
1 -685 -527 0
1 686 -687 0
1 -688 -522 0
1 688 -527 0
1 -688 689 0
1 688 -690 0
1 688 391 0
1 529 -672 0
1 529 -689 0
1 689 -691 0
1 689 -692 0
1 -689 -685 0
1 682 693 0
1 694 -695 0
1 694 696 0
1 -538 -687 0
1 -538 535 0
1 -538 -690 0
1 537 697 0
1 698 -539 0
1 699 688 0
1 522 -700 0
1 -522 538 0
1 -690 538 0
1 -533 535 0
1 533 697 0
1 701 533 0
1 702 -703 0
1 -702 -704 0
1 -705 701 0
1 -705 698 0
1 -705 550 0
1 706 -700 0
1 -706 707 0
1 -706 708 0
1 550 -703 0
1 550 -709 0
1 -550 -547 0
1 -710 -697 0
1 -710 -711 0
1 710 -712 0
1 703 -710 0
1 709 713 0
1 709 714 0
1 -709 710 0
1 715 -716 0
1 -561 549 0
1 -561 717 0
1 -561 -551 0
1 -718 -544 0
1 -718 -561 0
1 -718 388 0
1 563 719 0
1 -711 720 0
1 -721 720 0
1 -549 722 0
1 549 723 0
1 549 724 0
1 -571 -420 0
1 -725 571 0
1 -726 727 0
1 -728 -569 0
1 -728 -429 0
1 -729 554 0
1 -729 -728 0
1 -729 563 0
1 -552 720 0
1 -552 728 0
1 552 -730 0
1 719 -546 0
1 -719 728 0
1 -719 731 0
1 -578 -570 0
1 -578 -732 0
1 -732 578 0
1 -732 -401 0
1 732 -733 0
1 -732 734 0
1 735 736 0
1 -737 738 0
1 559 -739 0
1 -740 -578 0
1 -740 -741 0
1 -739 -586 0
1 -739 577 0
1 -576 738 0
1 742 590 0
1 -743 744 0
1 743 745 0
1 -745 -737 0
1 746 593 0
1 746 747 0
1 -748 -736 0
1 -748 -749 0
1 750 751 0
1 573 750 0
1 -573 746 0
1 -573 -748 0
1 -573 752 0
1 753 -588 0
1 747 754 0
1 755 -756 0
1 757 -758 0
1 759 -748 0
1 -587 -755 0
1 -760 -758 0
1 -760 -761 0
1 762 759 0
1 -763 -749 0
1 763 -607 0
1 764 -765 0
1 -764 -749 0
1 764 -766 0
1 -764 -767 0
1 -758 768 0
1 -761 -758 0
1 761 755 0
1 766 757 0
1 766 769 0
1 604 -605 0
1 -604 -770 0
1 -771 -772 0
1 771 -595 0
1 773 -774 0
1 773 -615 0
1 773 612 0
1 -773 761 0
1 614 772 0
1 614 775 0
1 614 612 0
1 770 621 0
1 -765 -776 0
1 -765 -770 0
1 765 -771 0
1 -772 777 0
1 613 -618 0
1 613 770 0
1 621 770 0
1 621 -620 0
1 778 777 0
1 -778 770 0
1 -778 779 0
1 -780 781 0
1 -780 779 0
1 -781 -773 0
1 -781 -782 0
1 774 -780 0
1 783 -784 0
1 783 616 0
1 -785 -786 0
1 787 -788 0
1 -787 -492 0
1 -789 779 0
1 611 790 0
1 611 -606 0
1 -791 -782 0
1 792 -611 0
1 -793 -794 0
1 -793 -795 0
1 -793 628 0
1 630 -796 0
1 -797 798 0
1 794 -789 0
1 794 -799 0
1 800 -801 0
1 800 -802 0
1 -643 800 0
1 -643 -628 0
1 643 476 0
1 -803 -801 0
1 803 -802 0
1 -803 -804 0
1 803 634 0
1 805 -806 0
1 -805 807 0
1 805 -640 0
1 802 -650 0
1 -802 795 0
1 802 -793 0
1 795 -803 0
1 -806 796 0
1 -639 808 0
1 639 -640 0
1 -641 795 0
1 -650 -809 0
1 -810 658 0
1 811 -805 0
1 -808 629 0
1 -808 650 0
1 -812 -813 0
1 -812 639 0
1 -658 810 0
1 -658 -646 0
1 658 811 0
1 814 -642 0
1 -814 -512 0
1 815 642 0
1 -815 -816 0
1 -817 642 0
1 817 646 0
1 809 667 0
1 -642 -658 0
1 -642 -650 0
1 642 818 0
1 644 819 0
1 -820 -657 0
1 667 820 0
1 -667 -821 0
1 667 -822 0
1 -823 -824 0
1 -823 817 0
1 -824 -825 0
1 821 -818 0
1 826 -827 0
1 -828 829 0
1 830 -831 0
1 -830 -828 0
1 832 -833 0
1 832 834 0
1 -832 835 0
1 836 -827 0
1 836 -662 0
1 831 -830 0
1 -837 838 0
1 -837 -839 0
1 837 -840 0
1 -837 827 0
1 827 -841 0
1 827 -828 0
1 -841 -842 0
1 -841 843 0
1 840 -837 0
1 840 -836 0
1 840 844 0
1 845 846 0
1 -847 839 0
1 847 -844 0
1 -848 841 0
1 -848 847 0
1 849 -850 0
1 -849 845 0
1 849 -843 0
1 -851 -852 0
1 -851 -853 0
1 -684 -682 0
1 854 855 0
1 -695 -694 0
1 856 -673 0
1 -692 522 0
1 -692 853 0
1 -692 690 0
1 691 682 0
1 -691 855 0
1 857 690 0
1 858 -854 0
1 859 858 0
1 -859 -672 0
1 -860 -691 0
1 860 -855 0
1 700 -859 0
1 -861 -862 0
1 861 -716 0
1 712 -863 0
1 -864 700 0
1 -862 -865 0
1 693 866 0
1 693 -682 0
1 693 857 0
1 -696 -857 0
1 -714 -863 0
1 -714 561 0
1 -714 709 0
1 714 715 0
1 707 867 0
1 -707 706 0
1 868 -864 0
1 -868 -869 0
1 -870 722 0
1 870 -714 0
1 863 -707 0
1 -871 -715 0
1 872 703 0
1 -872 870 0
1 -872 717 0
1 872 721 0
1 873 874 0
1 874 875 0
1 -876 724 0
1 -876 -872 0
1 -720 -877 0
1 720 721 0
1 878 720 0
1 -878 727 0
1 -878 -711 0
1 879 880 0
1 -881 719 0
1 882 -883 0
1 884 720 0
1 -884 -885 0
1 -886 -887 0
1 -888 -889 0
1 731 -729 0
1 731 -739 0
1 -885 -729 0
1 -741 730 0
1 890 -891 0
1 890 885 0
1 890 -892 0
1 -890 -893 0
1 -880 894 0
1 880 -891 0
1 880 881 0
1 -880 893 0
1 895 896 0
1 895 -721 0
1 -895 897 0
1 898 -743 0
1 -898 -899 0
1 -900 883 0
1 -900 559 0
1 893 -901 0
1 -894 901 0
1 -894 902 0
1 -894 -890 0
1 894 -903 0
1 -903 893 0
1 903 -898 0
1 901 904 0
1 -730 -905 0
1 -899 -906 0
1 -899 -894 0
1 -899 907 0
1 908 -903 0
1 -909 743 0
1 909 736 0
1 -909 896 0
1 909 -910 0
1 911 -912 0
1 -911 -913 0
1 -911 903 0
1 904 -901 0
1 904 747 0
1 914 915 0
1 916 -559 0
1 -916 914 0
1 917 909 0
1 -902 908 0
1 918 914 0
1 -918 751 0
1 -752 -919 0
1 752 -920 0
1 921 767 0
1 -920 -910 0
1 920 -922 0
1 920 923 0
1 -920 -752 0
1 -744 -904 0
1 -744 -911 0
1 -744 924 0
1 913 921 0
1 -913 925 0
1 -926 759 0
1 926 -927 0
1 -923 928 0
1 923 -749 0
1 -929 912 0
1 929 -930 0
1 922 -766 0
1 -931 932 0
1 931 -767 0
1 928 929 0
1 928 -933 0
1 -934 753 0
1 -754 935 0
1 754 936 0
1 754 -929 0
1 769 937 0
1 -769 -758 0
1 768 769 0
1 768 766 0
1 -768 758 0
1 -777 -938 0
1 777 -939 0
1 940 941 0
1 937 942 0
1 -937 929 0
1 -937 -940 0
1 943 -935 0
1 -943 -940 0
1 943 944 0
1 784 765 0
1 784 -938 0
1 945 946 0
1 947 -937 0
1 -938 786 0
1 -946 948 0
1 -949 791 0
1 -949 782 0
1 -950 -951 0
1 950 952 0
1 -953 -954 0
1 -953 955 0
1 776 -956 0
1 -954 -957 0
1 954 -958 0
1 -959 949 0
1 -799 960 0
1 -799 -790 0
1 799 -791 0
1 799 -955 0
1 790 961 0
1 -790 958 0
1 790 799 0
1 -804 -803 0
1 -804 -962 0
1 807 -963 0
1 807 794 0
1 -807 -962 0
1 960 -964 0
1 960 804 0
1 -952 -965 0
1 -952 966 0
1 961 -967 0
1 -961 950 0
1 -968 962 0
1 964 -969 0
1 964 796 0
1 969 -970 0
1 971 964 0
1 -971 -968 0
1 972 973 0
1 972 -974 0
1 -972 -975 0
1 -963 976 0
1 -813 977 0
1 813 802 0
1 -813 -978 0
1 -979 806 0
1 -979 978 0
1 980 -977 0
1 980 -808 0
1 981 962 0
1 -981 971 0
1 -982 813 0
1 -982 983 0
1 798 -819 0
1 977 -981 0
1 -978 -984 0
1 819 820 0
1 -822 808 0
1 822 819 0
1 822 -811 0
1 985 982 0
1 985 -986 0
1 -985 -987 0
1 988 -989 0
1 -990 -991 0
1 -990 829 0
1 -986 -992 0
1 993 821 0
1 -993 -816 0
1 -994 -995 0
1 994 821 0
1 994 -996 0
1 829 997 0
1 998 810 0
1 -998 -829 0
1 -998 999 0
1 -999 -1000 0
1 -999 -818 0
1 1001 1002 0
1 1001 808 0
1 825 1003 0
1 825 -1004 0
1 1003 -1005 0
1 -1003 1006 0
1 -1003 -823 0
1 -834 -832 0
1 -834 -1007 0
1 834 -998 0
1 -834 1008 0
1 1009 -1010 0
1 1009 999 0
1 -1006 -829 0
1 996 1005 0
1 -996 -1011 0
1 996 -829 0
1 -833 830 0
1 -1010 844 0
1 -1012 -833 0
1 -1013 833 0
1 -1014 855 0
1 1014 696 0
1 1015 1016 0
1 -1015 -1017 0
1 1015 -1018 0
1 -1019 1018 0
1 1018 -1020 0
1 -1021 1022 0
1 -1016 -1023 0
1 -1024 1018 0
1 -1020 -722 0
1 1020 -1025 0
1 1020 -865 0
1 -1020 869 0
1 -1025 1026 0
1 1027 -1028 0
1 -1017 -1024 0
1 1017 -1019 0
1 -1029 -1025 0
1 -877 1030 0
1 -1031 1032 0
1 1028 1032 0
1 -1033 1028 0
1 -1033 -881 0
1 1033 -1017 0
1 1026 -1034 0
1 -865 1028 0
1 865 1026 0
1 -1035 -1036 0
1 1037 1026 0
1 1037 886 0
1 -1038 887 0
1 1039 -1040 0
1 1041 -1038 0
1 1041 -1033 0
1 1041 -897 0
1 -1042 863 0
1 -1042 -1043 0
1 -1042 1044 0
1 1045 -1046 0
1 -1045 -1037 0
1 889 723 0
1 883 -884 0
1 -897 1040 0
1 -1040 -1047 0
1 -1040 894 0
1 1048 -1049 0
1 1048 -906 0
1 -875 896 0
1 -1050 887 0
1 -1051 -1052 0
1 1051 876 0
1 892 890 0
1 -896 -880 0
1 896 1053 0
1 905 -1054 0
1 -905 -899 0
1 -905 1053 0
1 905 -911 0
1 905 -730 0
1 -1055 896 0
1 -1047 -884 0
1 -1047 -1056 0
1 -1047 -905 0
1 -1047 -1057 0
1 1047 -1058 0
1 -1053 1054 0
1 -1053 -896 0
1 1053 1057 0
1 -1056 -1059 0
1 -1056 -918 0
1 1056 -1060 0
1 919 902 0
1 -1061 1056 0
1 -1062 906 0
1 1063 906 0
1 -1063 -1064 0
1 -1063 1065 0
1 -1059 -905 0
1 1059 -1066 0
1 -1067 -1068 0
1 930 1062 0
1 930 913 0
1 924 1062 0
1 -1069 -924 0
1 -1069 -903 0
1 1068 924 0
1 -907 924 0
1 -907 1067 0
1 907 -1058 0
1 -936 -1068 0
1 936 -920 0
1 925 -920 0
1 1070 1069 0
1 -1071 1072 0
1 915 935 0
1 -915 1073 0
1 -915 -925 0
1 -1073 -935 0
1 -1073 1074 0
1 1072 -924 0
1 1075 936 0
1 1075 -1071 0
1 935 -1076 0
1 933 934 0
1 -1077 -932 0
1 -1078 -947 0
1 -1079 1080 0
1 1079 -1081 0
1 1081 942 0
1 -1081 1077 0
1 1081 1082 0
1 1081 933 0
1 -1081 -1083 0
1 -1084 -1070 0
1 -1084 1085 0
1 -942 1079 0
1 -1086 939 0
1 -1087 946 0
1 -1087 -1088 0
1 -1087 1089 0
1 -1080 1090 0
1 1080 -1091 0
1 -932 1092 0
1 932 1093 0
1 -932 1086 0
1 932 -1087 0
1 1091 -1094 0
1 -1091 1095 0
1 1091 -1082 0
1 1091 -1096 0
1 -958 -1089 0
1 958 -948 0
1 1097 1092 0
1 1097 932 0
1 1097 1098 0
1 -1099 1100 0
1 -1099 967 0
1 1099 -1087 0
1 -1089 -957 0
1 -1089 -1100 0
1 1089 -1087 0
1 1090 -1094 0
1 -967 957 0
1 -957 -967 0
1 1101 956 0
1 965 969 0
1 965 -952 0
1 965 -1102 0
1 -1103 1092 0
1 -1104 1097 0
1 1098 1092 0
1 -1098 1102 0
1 -1102 967 0
1 1105 -1106 0
1 -973 -1107 0
1 973 981 0
1 -1108 -951 0
1 956 -973 0
1 -1109 1110 0
1 -1111 -956 0
1 1112 1113 0
1 -984 -974 0
1 1107 -955 0
1 1107 1105 0
1 1114 -1115 0
1 1114 1105 0
1 -1116 1115 0
1 983 1117 0
1 997 986 0
1 -997 976 0
1 -997 -1118 0
1 -997 -974 0
1 -1118 1002 0
1 1118 -997 0
1 -1118 984 0
1 -976 -1115 0
1 1002 -1119 0
1 -1002 825 0
1 1002 1120 0
1 1002 991 0
1 -991 -1002 0
1 1121 1122 0
1 1119 1123 0
1 1120 -1123 0
1 -1120 798 0
1 1124 -1125 0
1 -1124 -1007 0
1 -1124 997 0
1 1126 997 0
1 -1123 -1125 0
1 -1011 1120 0
1 -1011 -1122 0
1 -1127 1128 0
1 1127 -1005 0
1 -1129 -1130 0
1 1129 -1131 0
1 -1132 -1038 0
1 -1132 1022 0
1 1133 -1134 0
1 1022 -1135 0
1 -1022 -1044 0
1 -1136 -1137 0
1 -1136 1129 0
1 -1138 1136 0
1 -1044 -1026 0
1 1139 -883 0
1 -1046 1036 0
1 1046 -1042 0
1 -1135 1140 0
1 -1131 -1044 0
1 -1141 1046 0
1 -1130 1142 0
1 -1130 -1132 0
1 -1143 1139 0
1 1143 -1144 0
1 1043 1140 0
1 -1145 -1146 0
1 -1052 1147 0
1 -1140 -1145 0
1 -1140 -1148 0
1 -1036 1043 0
1 1149 -1052 0
1 1060 -1050 0
1 1150 -1151 0
1 -1152 1153 0
1 1154 1155 0
1 1154 -1156 0
1 -1157 1049 0
1 -1157 1158 0
1 -1147 -1158 0
1 1147 1159 0
1 -1160 -1045 0
1 -1160 -1152 0
1 1156 -1151 0
1 1057 -1059 0
1 1057 -1161 0
1 -1064 1162 0
1 -1064 -1154 0
1 -1064 1151 0
1 1064 -1163 0
1 -1066 1063 0
1 1066 -1153 0
1 1164 1165 0
1 1151 1153 0
1 -1166 -936 0
1 -1166 -1163 0
1 -1166 -1167 0
1 -1166 1164 0
1 1168 1061 0
1 -1169 -1170 0
1 1167 1171 0
1 -1172 -1173 0
1 -1172 1168 0
1 1162 1166 0
1 -1171 -1174 0
1 -1171 1167 0
1 1175 1172 0
1 -1173 -1176 0
1 1177 -1178 0
1 -1177 1179 0
1 1177 1078 0
1 -1177 1167 0
1 -1170 1180 0
1 1170 -1175 0
1 1174 -1170 0
1 1181 1182 0
1 -1181 -1173 0
1 1181 -1175 0
1 1176 -1183 0
1 1176 -1181 0
1 -1180 1184 0
1 -1180 1178 0
1 -1085 1170 0
1 -1085 -1185 0
1 -1186 1187 0
1 1186 -1178 0
1 -1179 1068 0
1 1179 -1188 0
1 -1179 -1189 0
1 1185 1177 0
1 -1185 -1190 0
1 1178 1180 0
1 1178 -907 0
1 -1178 1191 0
1 1178 -1085 0
1 1096 -1082 0
1 -1096 -1179 0
1 -1082 1079 0
1 -1082 -958 0
1 -1192 -1091 0
1 1192 1190 0
1 1095 1192 0
1 -1187 1193 0
1 -1194 -1195 0
1 -1194 1186 0
1 1194 1085 0
1 -1196 -1095 0
1 -1196 -1186 0
1 -1196 1085 0
1 -1197 -1198 0
1 -1094 -1187 0
1 -1094 957 0
1 1199 1195 0
1 1200 1195 0
1 1200 -1083 0
1 -1083 1201 0
1 -1083 -1202 0
1 1083 1195 0
1 -1083 -1203 0
1 -1204 -1094 0
1 -1204 -1205 0
1 1202 1102 0
1 1106 1206 0
1 -1207 -1208 0
1 1207 -1209 0
1 -1093 -1202 0
1 -1210 -1207 0
1 -1210 -1211 0
1 1212 -1109 0
1 1212 1208 0
1 1213 1214 0
1 -1213 -1215 0
1 1215 1093 0
1 1215 -1213 0
1 1215 -1216 0
1 1217 -1099 0
1 1218 1213 0
1 1218 1106 0
1 1219 1220 0
1 1219 1209 0
1 -1209 1207 0
1 1209 1221 0
1 -1209 1222 0
1 -1110 -956 0
1 1110 1217 0
1 -1110 1218 0
1 1223 -1116 0
1 1223 -1218 0
1 -1224 -1225 0
1 -1224 1226 0
1 1224 -1103 0
1 -1225 -1227 0
1 1225 -1224 0
1 1216 -1215 0
1 -1228 1229 0
1 -1115 1230 0
1 1115 -1231 0
1 -1115 -1114 0
1 1232 -976 0
1 1227 1233 0
1 -1227 1234 0
1 1235 1233 0
1 -1235 -1224 0
1 -1236 1226 0
1 1237 1227 0
1 1237 -1232 0
1 1238 1227 0
1 1238 -1115 0
1 1238 1239 0
1 -1238 -1235 0
1 -1125 -1123 0
1 -1125 1240 0
1 -1241 -1242 0
1 -1242 1241 0
1 1242 -1107 0
1 1234 -1114 0
1 1240 1243 0
1 -1233 -1244 0
1 1245 1246 0
1 -1245 -1247 0
1 -1142 -1245 0
1 -1248 1246 0
1 1249 1036 0
1 1246 1247 0
1 1247 1250 0
1 -1251 1249 0
1 -1251 1142 0
1 1251 -1252 0
1 -1250 1156 0
1 -1250 -1253 0
1 1250 -1160 0
1 1148 1254 0
1 1148 1255 0
1 1256 1253 0
1 -1257 -1248 0
1 1257 1258 0
1 1253 -1257 0
1 1253 1158 0
1 -1253 -1159 0
1 -1253 -1148 0
1 -1158 1259 0
1 -1258 1147 0
1 1258 -1157 0
1 -1258 1153 0
1 1260 1261 0
1 1260 1153 0
1 -1262 -1263 0
1 1264 1158 0
1 1264 -1256 0
1 1259 -1264 0
1 1265 1260 0
1 -1265 1266 0
1 -1265 -1258 0
1 1267 1171 0
1 1267 -1268 0
1 -1269 -1261 0
1 1269 -1270 0
1 -1269 -1271 0
1 1269 1164 0
1 -1272 1162 0
1 -1272 -1273 0
1 -1272 1163 0
1 -1272 -1274 0
1 -1261 -1274 0
1 -1274 1157 0
1 1273 1275 0
1 1273 1276 0
1 -1273 -1277 0
1 -1273 -1278 0
1 1273 1279 0
1 1273 1280 0
1 -1271 -1281 0
1 1182 -1162 0
1 -1182 -1276 0
1 -1182 -1261 0
1 -1182 -1274 0
1 -1282 -1162 0
1 -1282 1283 0
1 -1284 -1285 0
1 1183 1286 0
1 -1287 -1288 0
1 1285 -1280 0
1 1283 -1277 0
1 -1283 1289 0
1 1283 1281 0
1 1191 -1290 0
1 -1191 1291 0
1 -1191 -1185 0
1 -1292 1286 0
1 1292 -1191 0
1 1288 1293 0
1 -1286 -1292 0
1 -1286 -1294 0
1 -1286 1190 0
1 -1286 -1191 0
1 1290 1288 0
1 1295 -1162 0
1 1295 1296 0
1 1189 -1297 0
1 1189 1197 0
1 -1298 1299 0
1 1300 1301 0
1 -1302 -1303 0
1 -1301 -1170 0
1 1304 1305 0
1 1304 -1297 0
1 -1304 -1306 0
1 -1297 -1307 0
1 1308 -1204 0
1 -1308 -1301 0
1 -1193 1188 0
1 -1193 1309 0
1 -1310 1301 0
1 -1188 1179 0
1 -1188 -1308 0
1 -1303 1311 0
1 -1312 -1206 0
1 -1203 1313 0
1 -1201 1188 0
1 -1201 1203 0
1 1201 -1314 0
1 -1201 -1204 0
1 1211 -1314 0
1 1314 1315 0
1 1313 1316 0
1 -1317 1211 0
1 -1315 -1093 0
1 1315 1314 0
1 -1315 -1318 0
1 -1315 1209 0
1 1319 1219 0
1 1319 1320 0
1 1321 -1221 0
1 1205 1322 0
1 -1323 1219 0
1 1324 -1216 0
1 -1324 1325 0
1 -1326 -1231 0
1 1326 -1319 0
1 -1326 -1239 0
1 1325 -1327 0
1 -1325 1229 0
1 1325 -1208 0
1 -1320 1323 0
1 1229 1328 0
1 -1229 1220 0
1 1229 1238 0
1 1239 -1326 0
1 1327 1241 0
1 -1327 -1325 0
1 -1327 -1329 0
1 1329 1324 0
1 -1329 1218 0
1 1329 1330 0
1 1220 -1229 0
1 1220 -1331 0
1 1222 1239 0
1 -1270 -1332 0
1 -1270 -1252 0
1 1333 1334 0
1 1266 1265 0
1 -1335 -1279 0
1 -1336 -1333 0
1 1252 1266 0
1 -1252 -1251 0
1 -1276 1279 0
1 1279 -1263 0
1 -1275 -1273 0
1 1278 1337 0
1 1278 1338 0
1 1339 -1333 0
1 1334 1278 0
1 -1281 1337 0
1 -1340 1341 0
1 1293 1342 0
1 1293 1338 0
1 1343 1344 0
1 1338 -1275 0
1 -1337 -1275 0
1 -1342 -1281 0
1 -1345 -1295 0
1 1345 -1346 0
1 1345 -1300 0
1 -1347 -1348 0
1 -1347 -1343 0
1 1347 -1289 0
1 -1346 1347 0
1 1346 -1349 0
1 1346 -1350 0
1 1346 -1351 0
1 -1341 -1352 0
1 -1353 -1354 0
1 -1354 -1355 0
1 1354 -1299 0
1 1354 -1356 0
1 -1294 -1296 0
1 1294 -1291 0
1 -1294 -1289 0
1 -1296 -1295 0
1 -1357 -1310 0
1 -1357 -1358 0
1 -1357 1359 0
1 -1348 1359 0
1 -1360 1357 0
1 -1289 1350 0
1 1289 1283 0
1 -1361 1362 0
1 1361 -1363 0
1 1361 1364 0
1 -1363 -1365 0
1 -1363 1361 0
1 1366 1367 0
1 -1362 -1368 0
1 -1362 1361 0
1 -1311 1313 0
1 -1311 -1364 0
1 1311 -1306 0
1 1311 1367 0
1 1369 1313 0
1 1369 1370 0
1 1371 -1313 0
1 -1371 1370 0
1 -1370 -1372 0
1 1370 -1371 0
1 -1373 -1374 0
1 1306 -1375 0
1 -1364 -1306 0
1 1376 -1321 0
1 1376 -1370 0
1 1376 -1377 0
1 -1322 1378 0
1 -1322 -1379 0
1 -1322 1205 0
1 1372 -1380 0
1 1381 -1377 0
1 -1380 1376 0
1 1380 1371 0
1 1382 1374 0
1 1382 1381 0
1 -1328 -1383 0
1 1384 -1385 0
1 1384 -1386 0
1 1387 -1385 0
1 1387 -1388 0
1 1385 1386 0
1 -1386 -1372 0
1 1389 1317 0
1 1390 1299 0
1 -1391 -1392 0
1 1391 -1393 0
1 -1391 -1394 0
1 -1395 -1392 0
1 1395 -1396 0
1 1395 1397 0
1 1395 -1394 0
1 -1397 1390 0
1 1397 1336 0
1 -1392 -1398 0
1 1398 1390 0
1 1344 -1338 0
1 -1355 1296 0
1 1355 -1344 0
1 1356 1358 0
1 -1358 -1399 0
1 1400 1355 0
1 -1401 -1402 0
1 1393 1394 0
1 1394 -1403 0
1 1350 1404 0
1 -1350 -1360 0
1 1350 1289 0
1 -1405 1305 0
1 -1406 -1349 0
1 1406 1407 0
1 1406 1352 0
1 1408 1400 0
1 -1408 -1404 0
1 -1408 1401 0
1 1409 -1350 0
1 -1410 1411 0
1 1410 1412 0
1 1399 1408 0
1 1413 1289 0
1 -1367 1359 0
1 -1367 -1289 0
1 1368 1414 0
1 1415 1414 0
1 -1352 -1416 0
1 -1417 1408 0
1 1417 1412 0
1 1417 1418 0
1 1419 1420 0
1 -1419 1365 0
1 -1421 -1422 0
1 1421 1414 0
1 1421 -1363 0
1 1416 -1423 0
1 1424 1421 0
1 1414 1425 0
1 1420 1419 0
1 -1422 1415 0
1 -1422 -1289 0
1 1374 -1364 0
1 -1374 -1375 0
1 1374 -1370 0
1 -1375 -1414 0
1 1375 1379 0
1 1425 1387 0
1 -1426 1427 0
1 1423 1366 0
1 1428 1429 0
1 1428 -1401 0
1 1428 1430 0
1 1431 -1429 0
1 -1431 1432 0
1 -1431 -1433 0
1 -1431 -1368 0
1 -1429 -1434 0
1 -1435 1417 0
1 -1436 1437 0
1 -1436 -1417 0
1 1433 1400 0
1 -1402 -1401 0
1 1402 1438 0
1 -1439 1393 0
1 1439 -1403 0
1 -1403 1439 0
1 -1403 -1438 0
1 1403 -1440 0
1 -1441 -1420 0
1 1411 1442 0
1 -1442 -1436 0
